(declare-fun v0 () (_ BitVec 3))
(declare-fun v2 () (_ BitVec 16))
(assert
(let (($e1 (_ bv0 1)))
(let (($e11 (_ bv1 2)))
(let (($e14 (_ bv255 8)))
(let (($e17 (_ bv32767 15)))
(let (($e33 (_ bv15 4)))
(let (($e36 (_ bv255 9)))
(let (($e821 (concat $e14  v0)))
(let (($e1189 (concat $e17   $e1  )))
(let (($e1190      (bvult $e1189 v2)         ))
(let (($e1574 (concat $e33   $e33)))
(let (($e1601 (concat $e36        $e11 )))
(let (($e1602 (bvand $e821 $e1601)))
(let (($e1603 (concat v0   $e1574)))
(let (($e1604 (bvand $e1603 $e1602)))
              (ite        $e1190  $e1602 $e1604)
                                                                                                                                                                                                                                                                                                                                                                                                                                                                                                                                                                                                                                                                                                                                                                                                                                                                                                                                                                                                                                                                                                                                                                                                                                                                                                                                                                                                                                                                                                                                                                                                                                                                                                                                                                                                                                                                                                                                                                                                                                                                                                                                                                                                                                                                                                                                                                                                                                                                                                                                                                                                                                                                                                                                                                                                                                                                                                                                                                                                                                                                                                                                                                                                                                                                                                                                                                                                                                                                                                                                                                                                                                                                                                                                                                                                                                                                                                                                                                                                                                                                                                                                                                                                                                                                                                                                                                                                                                                                                                                                                                                                                                                                                                                                                                                                                                                                                                                                                                                                                                                                                                                                                                                                                                                                                                                                                                                                                                                                                                                                                                                                                                                                                                                                                                                                                                                                                                                                                                                                                                                                                                                                                                                                                                                                                                                                                                                                                                                                                           ))))                          )                                                                                                                                                                                                                                                                                                                                                                                               ))                                                                                                                                                                                                                                                                                                                                                                               )                                                                                                                                                                                                                                                                                                                                                                                                                                                                                                                                                                                                                                                                                                                                                                                    )  )               )  )  )         ))
